var 1..5:  X_INTRODUCED_0_;
var 1..5:  X_INTRODUCED_1_;
var 1..5:  X_INTRODUCED_2_;
var 1..5:  X_INTRODUCED_3_;
array [1..4] of var int: _275:: output_array([1..5])=[X_INTRODUCED_0_,X_INTRODUCED_1_,X_INTRODUCED_2_,X_INTRODUCED_3_];
var 1..5: X_INTRODUCED_4_ ::var_is_introduced :: is_defined_var;
var 1..5: X_INTRODUCED_5_ ::var_is_introduced :: is_defined_var;
var 5..5: X_INTRODUCED_6_ ::var_is_introduced :: is_defined_var;
constraint int_max(X_INTRODUCED_1_,X_INTRODUCED_0_,X_INTRODUCED_4_):: defines_var(X_INTRODUCED_4_);
constraint int_max(X_INTRODUCED_2_,X_INTRODUCED_4_,X_INTRODUCED_5_):: defines_var(X_INTRODUCED_5_);
constraint int_max(X_INTRODUCED_3_,X_INTRODUCED_5_,X_INTRODUCED_6_):: defines_var(X_INTRODUCED_6_);
solve satisfy;
